Pt                            
   2.72943200000000     
     1.4142100000000000    0.0000000000000000    0.0000000000000000
     0.0000000000000000    4.4721399999999996    0.0000000000000000
     0.0000000000000000    0.0000000000000000    9.2969600000000003
  28
Selective dynamics
Direct
  0.5000000000000000  0.3476218361547865  0.9746215317831428   T   T   T
  0.5000000000000000  0.8476218361547865  0.9746215317831428   T   T   T
  0.0000000000000000  0.7021535259139640  0.9545269581428926   T   T   T
  0.0000000000000000  0.2021535259139640  0.9545269581428926   T   T   T
  0.5000000000000000  0.0564582744479480  0.9380909860690565   T   T   T
  0.5000000000000000  0.5564582744479480  0.9380909860690565   T   T   T
  0.0000000000000000  0.4095143265378240  0.9110149293326515   T   T   T
  0.0000000000000000  0.9095143265378240  0.9110149293326515   T   T   T
  0.5000000000000000  0.2485034819579965  0.8807590907635685   T   T   T
  0.5000000000000000  0.7485034819579965  0.8807590907635685   T   T   T
  0.0000000000000000  0.0992625288222726  0.8580590470224365   T   T   T
  0.0000000000000000  0.5992625288222726  0.8580590470224365   T   T   T
  0.5000000000000000  0.4515062835914776  0.8359664324742582   T   T   T
  0.5000000000000000  0.9515062835914776  0.8359664324742582   T   T   T
  0.0000000000000000  0.8029597514791860  0.8097190712618101   T   T   T
  0.0000000000000000  0.3029597514791860  0.8097190712618101   T   T   T
  0.5000000000000000  0.1499999999999986  0.7835400000000021   T   T   T
  0.5000000000000000  0.6499999999999986  0.7835400000000021   T   T   T
  0.0000000000000000  0.5000000000000000  0.7594899999999996   T   T   T
  0.0000000000000000  0.0000000000000000  0.7594899999999996   T   T   T
  0.5000000000000000  0.3500000000000014  0.7354399999999970   T   T   T
  0.5000000000000000  0.8500000000000014  0.7354399999999970   T   T   T
  0.0000000000000000  0.2000000000000028  0.7113799999999983   F   F   F
  0.0000000000000000  0.7000000000000028  0.7113799999999983   F   F   F
  0.5000000000000000  0.5499999999999972  0.6873300000000029   F   F   F
  0.5000000000000000  0.0499999999999972  0.6873300000000029   F   F   F
  0.0000000000000000  0.8999999999999986  0.6632699999999971   F   F   F
  0.0000000000000000  0.3999999999999986  0.6632699999999971   F   F   F
 

